% Data file generated from RandomInstances/30_0.60_1.col DIMACS file
size = 30;

chi = 8;

adjacency = [|0,0,1,1,0,1,1,1,1,0,1,0,0,0,1,0,1,1,1,0,0,1,0,1,1,0,1,1,1,0,
|0,0,1,1,0,0,0,0,0,1,0,1,1,1,1,1,0,1,0,1,1,1,1,1,1,0,0,1,1,0,
|1,1,0,0,1,1,0,0,0,1,1,0,1,1,0,0,1,1,0,1,1,1,0,1,1,0,1,1,1,1,
|1,1,0,0,1,1,0,0,0,1,1,1,1,1,1,1,0,1,0,1,0,1,1,0,1,0,1,1,0,1,
|0,0,1,1,0,0,0,1,0,1,1,0,1,1,0,0,0,1,1,1,1,0,1,1,0,0,0,0,1,0,
|1,0,1,1,0,0,0,1,0,0,1,1,0,0,1,1,1,1,0,1,1,0,1,0,0,1,1,1,0,0,
|1,0,0,0,0,0,0,1,1,1,1,0,0,0,1,1,0,1,1,1,1,0,1,0,0,1,1,1,1,0,
|1,0,0,0,1,1,1,0,0,0,0,1,1,0,0,0,1,0,1,0,1,1,1,0,1,1,0,0,1,1,
|1,0,0,0,0,0,1,0,0,0,0,0,1,1,0,1,0,1,0,1,1,1,1,1,0,1,0,0,0,1,
|0,1,1,1,1,0,1,0,0,0,1,0,0,1,0,0,1,1,1,1,1,1,1,0,0,0,0,1,1,1,
|1,0,1,1,1,1,1,0,0,1,0,0,0,1,1,1,1,1,1,1,1,1,1,1,1,1,0,0,0,1,
|0,1,0,1,0,1,0,1,0,0,0,0,1,1,1,0,1,0,1,1,0,1,0,1,0,1,0,1,0,1,
|0,1,1,1,1,0,0,1,1,0,0,1,0,1,1,0,1,1,0,0,1,1,1,0,0,0,1,1,1,0,
|0,1,1,1,1,0,0,0,1,1,1,1,1,0,1,1,1,1,1,0,0,1,1,0,0,1,1,0,0,1,
|1,1,0,1,0,1,1,0,0,0,1,1,1,1,0,0,1,1,1,0,1,0,0,0,1,0,1,1,0,0,
|0,1,0,1,0,1,1,0,1,0,1,0,0,1,0,0,0,0,1,1,1,1,0,0,1,1,1,1,1,0,
|1,0,1,0,0,1,0,1,0,1,1,1,1,1,1,0,0,1,0,0,1,0,0,0,1,0,1,0,1,1,
|1,1,1,1,1,1,1,0,1,1,1,0,1,1,1,0,1,0,1,0,0,0,1,0,0,1,1,0,0,1,
|1,0,0,0,1,0,1,1,0,1,1,1,0,1,1,1,0,1,0,1,1,1,1,1,0,0,0,1,0,0,
|0,1,1,1,1,1,1,0,1,1,1,1,0,0,0,1,0,0,1,0,0,0,1,1,0,1,1,1,1,1,
|0,1,1,0,1,1,1,1,1,1,1,0,1,0,1,1,1,0,1,0,0,1,1,1,1,0,1,0,1,0,
|1,1,1,1,0,0,0,1,1,1,1,1,1,1,0,1,0,0,1,0,1,0,1,1,1,0,0,1,0,1,
|0,1,0,1,1,1,1,1,1,1,1,0,1,1,0,0,0,1,1,1,1,1,0,1,0,1,1,1,0,1,
|1,1,1,0,1,0,0,0,1,0,1,1,0,0,0,0,0,0,1,1,1,1,1,0,0,1,0,0,1,1,
|1,1,1,1,0,0,0,1,0,0,1,0,0,0,1,1,1,0,0,0,1,1,0,0,0,1,1,1,1,0,
|0,0,0,0,0,1,1,1,1,0,1,1,0,1,0,1,0,1,0,1,0,0,1,1,1,0,0,0,1,1,
|1,0,1,1,0,1,1,0,0,0,0,0,1,1,1,1,1,1,0,1,1,0,1,0,1,0,0,1,0,1,
|1,1,1,1,0,1,1,0,0,1,0,1,1,0,1,1,0,0,1,1,0,1,1,0,1,0,1,0,0,1,
|1,1,1,0,1,0,1,1,0,1,0,0,1,0,0,1,1,0,0,1,1,0,0,1,1,1,0,0,0,0,
|0,0,1,1,0,0,0,1,1,1,1,1,0,1,0,0,1,1,0,1,0,1,1,1,0,1,1,1,0,0,
|];